data/solutions/recovery/degenerate/intermediate/flexible/degenerate_intermediate_instance23/20.sol
Elapsed time: 100.09
Upper bound: 227931034.0
Planning weighted value: 9.0239685645e+11
C[0]=227931034.0
C[1]=227825684.0
C[2]=227656629.0
C[3]=226619011.0
C[4]=226267567.0
C[5]=226202709.0
C[6]=225647304.0
C[7]=225437601.0
C[8]=224272471.0
C[9]=224117389.0
C[10]=220428501.0
C[11]=0.0
y[0]=5
y[1]=2
y[2]=4
y[3]=1
y[4]=2
y[5]=4
y[6]=5
y[7]=6
y[8]=5
y[9]=7
y[10]=5
y[11]=3
y[12]=5
y[13]=2
y[14]=6
y[15]=8
y[16]=7
y[17]=3
y[18]=0
y[19]=1
y[20]=6
y[21]=2
y[22]=4
y[23]=1
y[24]=3
y[25]=4
y[26]=3
y[27]=2
y[28]=6
y[29]=5
y[30]=4
y[31]=0
y[32]=0
y[33]=8
y[34]=7
y[35]=6
y[36]=5
y[37]=4
y[38]=10
y[39]=5
y[40]=7
y[41]=5
y[42]=4
y[43]=0
y[44]=5
y[45]=2
y[46]=1
y[47]=10
y[48]=0
y[49]=3
y[50]=9
y[51]=1
y[52]=7
y[53]=9
y[54]=1
y[55]=9
y[56]=8
y[57]=9
y[58]=2
y[59]=1
y[60]=8
y[61]=9
y[62]=10
y[63]=10
y[64]=7
y[65]=10
y[66]=9
y[67]=2
y[68]=8
y[69]=10
y[70]=9
y[71]=0
y[72]=0
y[73]=1
y[74]=9
y[75]=3
y[76]=3
y[77]=7
