data/solutions/recovery/degenerate/intermediate/flexible/degenerate_intermediate_instance23/20.log

Log started (V12.6.3.0) Sat Apr 21 15:02:02 2018

New value for default parallel thread count: 1

Problem '/tmp/tmpr72ef3.pyomo.lp' read.
Read time = 0.01 sec. (0.85 ticks)

Problem name         : /tmp/tmpr72ef3.pyomo.lp
Objective sense      : Minimize
Variables            :     950  [Nneg: 1,  Binary: 936,  General Integer: 13]
Objective nonzeros   :       1
Linear constraints   :     182  [Less: 90,  Equal: 92]
  Nonzeros           :   61117
  RHS nonzeros       :     157

Variables            : Min LB: 0.000000         Max UB: 1.000000       
Objective nonzeros   : Min   : 1.000000         Max   : 1.000000       
Linear constraints   :
  Nonzeros           : Min   : 1.000000         Max   : 6.145599e+07   
  RHS nonzeros       : Min   : 1.000000         Max   : 8.000000       
Tried aggregator 2 times.
MIP Presolve eliminated 81 rows and 140 columns.
Aggregator did 6 substitutions.
Reduced MIP has 95 rows, 804 columns, and 2247 nonzeros.
Reduced MIP has 792 binaries, 12 generals, 0 SOSs, and 0 indicators.
Presolve time = 0.01 sec. (11.04 ticks)
Found incumbent of value 8.2943148e+08 after 0.01 sec. (12.59 ticks)
Probing time = 0.00 sec. (1.59 ticks)
Tried aggregator 1 time.
Reduced MIP has 95 rows, 804 columns, and 2247 nonzeros.
Reduced MIP has 792 binaries, 12 generals, 0 SOSs, and 0 indicators.
Presolve time = 0.00 sec. (1.15 ticks)
Probing time = 0.00 sec. (1.59 ticks)
Clique table members: 72.
MIP emphasis: balance optimality and feasibility.
MIP search method: dynamic search.
Parallel mode: none, using 1 thread.
Root relaxation solution time = 0.00 sec. (1.57 ticks)

        Nodes                                         Cuts/
   Node  Left     Objective  IInf  Best Integer    Best Bound    ItCnt     Gap

*     0+    0                       8.29431e+08        0.0000           100.00%
      0     0   2.25673e+08    30   8.29431e+08   2.25673e+08      144   72.79%
      0     0   2.25673e+08    21   8.29431e+08      Fract: 4      163   72.79%
      0     0   2.25673e+08    24   8.29431e+08      Fract: 3      174   72.79%
*     0+    0                       2.75734e+08   2.25673e+08            18.16%
*     0+    0                       2.67921e+08   2.25673e+08            15.77%
*     0+    0                       2.49188e+08   2.25673e+08             9.44%
*     0+    0                       2.42086e+08   2.25673e+08             6.78%
      0     2   2.25673e+08    17   2.42086e+08   2.25673e+08      174    6.78%
Elapsed time = 0.05 sec. (55.37 ticks, tree = 0.01 MB, solutions = 5)
*    10+   10                       2.41900e+08   2.25673e+08             6.71%
*    50+   50                       2.40706e+08   2.25673e+08             6.25%
*   150+  128                       2.39183e+08   2.25673e+08             5.65%
*   150+  128                       2.37795e+08   2.25673e+08             5.10%
*   150+  127                       2.34866e+08   2.25673e+08             3.91%
*   150+  127                       2.34289e+08   2.25673e+08             3.68%
*   150+  127                       2.33880e+08   2.25673e+08             3.51%
*   150+  117                       2.32683e+08   2.25673e+08             3.01%
*   500+  420                       2.31849e+08   2.25673e+08             2.66%
    500   422   2.25673e+08    18   2.31849e+08   2.25673e+08     2357    2.66%
    501   423   2.25673e+08    28   2.31849e+08   2.25673e+08     2855    2.66%
    502   423   2.25673e+08    28   2.31849e+08   2.25673e+08     2861    2.66%
    503   423   2.25673e+08    28   2.31849e+08   2.25673e+08     2863    2.66%
    504   424   2.25673e+08    24   2.31849e+08   2.25673e+08     2869    2.66%
    505   425   2.25673e+08    28   2.31849e+08   2.25673e+08     2878    2.66%
    506   426   2.25673e+08    25   2.31849e+08   2.25673e+08     2883    2.66%
    507   427   2.25673e+08    25   2.31849e+08   2.25673e+08     2885    2.66%
    508   427   2.25673e+08    24   2.31849e+08   2.25673e+08     2889    2.66%
*   701+  336                       2.31052e+08   2.25673e+08             2.33%
*   901+  363                       2.30795e+08   2.25673e+08             2.22%
*   901+  341                       2.30723e+08   2.25673e+08             2.19%
*  1101+  438                       2.30045e+08   2.25673e+08             1.90%
   1281   574   2.25673e+08    21   2.30045e+08   2.25673e+08     6716    1.90%
Elapsed time = 0.86 sec. (1009.56 ticks, tree = 0.37 MB, solutions = 18)
*  1301+  589                       2.29622e+08   2.25673e+08             1.72%
*  1301+  582                       2.29275e+08   2.25673e+08             1.57%
*  1401+  659                       2.29202e+08   2.25673e+08             1.54%
*  1601+  821                       2.29080e+08   2.25673e+08             1.49%
   2059  1160   2.25673e+08    31   2.29080e+08   2.25673e+08    10991    1.49%
   2060  1161   2.25673e+08    32   2.29080e+08   2.25673e+08    10995    1.49%
   2061  1162   2.25673e+08    32   2.29080e+08   2.25673e+08    10996    1.49%
   2062  1163   2.25673e+08    32   2.29080e+08   2.25673e+08    11000    1.49%
   2063  1164   2.25673e+08    32   2.29080e+08   2.25673e+08    11001    1.49%
   2064  1165   2.25673e+08    37   2.29080e+08   2.25673e+08    11009    1.49%
   2065  1166   2.27152e+08    29   2.29080e+08   2.25673e+08    11014    1.49%
   2066  1167   2.27152e+08    28   2.29080e+08   2.25673e+08    11016    1.49%
   2067  1168   2.27152e+08    28   2.29080e+08   2.25673e+08    11019    1.49%
   2068  1169   2.27152e+08    30   2.29080e+08   2.25673e+08    11024    1.49%
Elapsed time = 1.64 sec. (1965.49 ticks, tree = 0.76 MB, solutions = 22)
   4404  2930   2.25673e+08    20   2.29080e+08   2.25673e+08    29381    1.49%
   4405  2931   2.25673e+08    20   2.29080e+08   2.25673e+08    29383    1.49%
   4406  2932   2.25673e+08    21   2.29080e+08   2.25673e+08    29386    1.49%
   4407  2933   2.25673e+08    20   2.29080e+08   2.25673e+08    29388    1.49%
   4408  2934   2.25673e+08    20   2.29080e+08   2.25673e+08    29390    1.49%
   4409  2935   2.25673e+08    20   2.29080e+08   2.25673e+08    29392    1.49%
   4410  2936   2.25673e+08    19   2.29080e+08   2.25673e+08    29394    1.49%
   4411  2937   2.25673e+08    22   2.29080e+08   2.25673e+08    29397    1.49%
   4412  2938   2.25673e+08    20   2.29080e+08   2.25673e+08    29398    1.49%
   4413  2939   2.25673e+08    20   2.29080e+08   2.25673e+08    29399    1.49%
Elapsed time = 2.39 sec. (2921.63 ticks, tree = 1.89 MB, solutions = 22)
   6098  4132   2.25673e+08    26   2.29080e+08   2.25673e+08    49573    1.49%
   6099  4133   2.25673e+08    30   2.29080e+08   2.25673e+08    49595    1.49%
   6100  4134   2.25673e+08    28   2.29080e+08   2.25673e+08    49605    1.49%
   6101  4135   2.25673e+08    28   2.29080e+08   2.25673e+08    49607    1.49%
   6102  4136   2.25673e+08    30   2.29080e+08   2.25673e+08    49658    1.49%
   6103  4137   2.25673e+08    31   2.29080e+08   2.25673e+08    49681    1.49%
   6104  4138   2.25673e+08    29   2.29080e+08   2.25673e+08    49690    1.49%
   6105  4139   2.25673e+08    30   2.29080e+08   2.25673e+08    49697    1.49%
   6106  4140   2.25673e+08    33   2.29080e+08   2.25673e+08    49767    1.49%
   6107  4141   2.25673e+08    32   2.29080e+08   2.25673e+08    49773    1.49%
Elapsed time = 3.10 sec. (3882.65 ticks, tree = 2.72 MB, solutions = 22)
   7506  5285   2.25673e+08    36   2.29080e+08   2.25673e+08    71247    1.49%
   7507  5284        cutoff         2.29080e+08   2.25673e+08    71250    1.49%
   7508  5284   2.26152e+08    29   2.29080e+08   2.25673e+08    71290    1.49%
   7509  5285   2.27185e+08    27   2.29080e+08   2.25673e+08    71293    1.49%
   7510  5286   2.27185e+08    26   2.29080e+08   2.25673e+08    71294    1.49%
   7511  5286   2.27974e+08    26   2.29080e+08   2.25673e+08    71300    1.49%
   7512  5285        cutoff         2.29080e+08   2.25673e+08    71301    1.49%
   7513  5286   2.25673e+08    46   2.29080e+08   2.25673e+08    71479    1.49%
   7514  5287   2.25673e+08    44   2.29080e+08   2.25673e+08    71485    1.49%
   7515  5288   2.25673e+08    43   2.29080e+08   2.25673e+08    71486    1.49%
Elapsed time = 3.82 sec. (4857.31 ticks, tree = 3.46 MB, solutions = 22)
   8826  6386   2.25673e+08    43   2.29080e+08   2.25673e+08    91451    1.49%
   8827  6387   2.25673e+08    53   2.29080e+08   2.25673e+08    91457    1.49%
   8828  6388   2.25673e+08    51   2.29080e+08   2.25673e+08    91458    1.49%
   8829  6389   2.25673e+08    43   2.29080e+08   2.25673e+08    91459    1.49%
   8830  6390   2.25673e+08    43   2.29080e+08   2.25673e+08    91462    1.49%
   8831  6391   2.25673e+08    43   2.29080e+08   2.25673e+08    91466    1.49%
   8832  6392   2.25673e+08    42   2.29080e+08   2.25673e+08    91471    1.49%
   8833  6393   2.25673e+08    35   2.29080e+08   2.25673e+08    91477    1.49%
   8834  6394   2.25673e+08    44   2.29080e+08   2.25673e+08    91738    1.49%
   8835  6395   2.25673e+08    40   2.29080e+08   2.25673e+08    91740    1.49%
Elapsed time = 4.56 sec. (5856.52 ticks, tree = 4.14 MB, solutions = 22)
  10351  7691   2.27327e+08    33   2.29080e+08   2.25673e+08   111666    1.49%
  10352  7692   2.28776e+08    32   2.29080e+08   2.25673e+08   111668    1.49%
  10353  7693   2.28776e+08    29   2.29080e+08   2.25673e+08   111675    1.49%
  10354  7692        cutoff         2.29080e+08   2.25673e+08   111702    1.49%
  10355  7693   2.28776e+08    27   2.29080e+08   2.25673e+08   111705    1.49%
  10356  7694   2.28776e+08    26   2.29080e+08   2.25673e+08   111709    1.49%
  10357  7695   2.28776e+08    26   2.29080e+08   2.25673e+08   111710    1.49%
  10358  7696   2.28776e+08    25   2.29080e+08   2.25673e+08   111717    1.49%
  10359  7697   2.28776e+08    26   2.29080e+08   2.25673e+08   111719    1.49%
  10360  7696        cutoff         2.29080e+08   2.25673e+08   111723    1.49%
Elapsed time = 5.26 sec. (6815.46 ticks, tree = 4.98 MB, solutions = 22)
  10751  8042   2.27187e+08    38   2.29080e+08   2.25673e+08   117889    1.49%
  10752  8043   2.27213e+08    39   2.29080e+08   2.25673e+08   117899    1.49%
  10753  8044   2.27216e+08    38   2.29080e+08   2.25673e+08   117909    1.49%
  10754  8045   2.27216e+08    39   2.29080e+08   2.25673e+08   117912    1.49%
  10755  8046   2.27218e+08    38   2.29080e+08   2.25673e+08   117919    1.49%
  10756  8046   2.27218e+08    38   2.29080e+08   2.25673e+08   117920    1.49%
  10757  8046   2.27218e+08    38   2.29080e+08   2.25673e+08   117921    1.49%
  10758  8047   2.27497e+08    40   2.29080e+08   2.25673e+08   117951    1.49%
  10759  8048   2.27497e+08    39   2.29080e+08   2.25673e+08   117952    1.49%
  10760  8049   2.27497e+08    38   2.29080e+08   2.25673e+08   117953    1.49%
Elapsed time = 6.08 sec. (7772.82 ticks, tree = 5.20 MB, solutions = 22)
  12139  9209   2.25673e+08    35   2.29080e+08   2.25673e+08   138824    1.49%
  12140  9210   2.25673e+08    36   2.29080e+08   2.25673e+08   138830    1.49%
  12141  9211   2.25673e+08    37   2.29080e+08   2.25673e+08   138831    1.49%
  12142  9212   2.25673e+08    35   2.29080e+08   2.25673e+08   138837    1.49%
  12143  9213   2.25673e+08    35   2.29080e+08   2.25673e+08   138840    1.49%
  12144  9214   2.25673e+08    33   2.29080e+08   2.25673e+08   138844    1.49%
  12145  9215   2.25673e+08    33   2.29080e+08   2.25673e+08   138854    1.49%
  12146  9216   2.25673e+08    27   2.29080e+08   2.25673e+08   138884    1.49%
  12147  9217   2.25673e+08    27   2.29080e+08   2.25673e+08   138907    1.49%
  12148  9218   2.25673e+08    31   2.29080e+08   2.25673e+08   138909    1.49%
Elapsed time = 6.79 sec. (8729.75 ticks, tree = 6.18 MB, solutions = 22)
  13576 10433   2.25673e+08    53   2.29080e+08   2.25673e+08   160434    1.49%
  13577 10434   2.25673e+08    53   2.29080e+08   2.25673e+08   160460    1.49%
  13578 10434   2.26584e+08    53   2.29080e+08   2.25673e+08   160528    1.49%
  13579 10435   2.26629e+08    54   2.29080e+08   2.25673e+08   160532    1.49%
  13580 10436   2.26631e+08    54   2.29080e+08   2.25673e+08   160535    1.49%
  13581 10437   2.26631e+08    53   2.29080e+08   2.25673e+08   160536    1.49%
  13582 10438   2.26634e+08    52   2.29080e+08   2.25673e+08   160537    1.49%
  13583 10438   2.26634e+08    53   2.29080e+08   2.25673e+08   160538    1.49%
  13584 10439   2.26742e+08    51   2.29080e+08   2.25673e+08   160554    1.49%
  16334 12732   2.27851e+08    32   2.29080e+08   2.25673e+08   218514    1.49%
Elapsed time = 9.53 sec. (12551.16 ticks, tree = 8.45 MB, solutions = 22)
  19245 15174   2.25673e+08    62   2.29080e+08   2.25673e+08   289000    1.49%
  19246 15175   2.25673e+08    61   2.29080e+08   2.25673e+08   289031    1.49%
  19247 15176   2.25673e+08    66   2.29080e+08   2.25673e+08   289051    1.49%
  19248 15177   2.25673e+08    67   2.29080e+08   2.25673e+08   289055    1.49%
  19249 15178   2.25673e+08    58   2.29080e+08   2.25673e+08   289071    1.49%
  19250 15179   2.25673e+08    63   2.29080e+08   2.25673e+08   289089    1.49%
  19251 15179   2.28588e+08    31   2.29080e+08   2.25673e+08   289256    1.49%
  19252 15180   2.28588e+08    30   2.29080e+08   2.25673e+08   289259    1.49%
  19253 15179        cutoff         2.29080e+08   2.25673e+08   289266    1.49%
  19254 15178    infeasible         2.29080e+08   2.25673e+08   289266    1.49%
Elapsed time = 12.36 sec. (16446.79 ticks, tree = 10.09 MB, solutions = 22)
* 20701+15257                       2.28318e+08   2.25673e+08             1.16%
  21812 16191   2.25673e+08    73   2.28318e+08   2.25673e+08   355045    1.16%
  21813 16192   2.25673e+08    64   2.28318e+08   2.25673e+08   355172    1.16%
  21814 16193   2.25673e+08    68   2.28318e+08   2.25673e+08   355784    1.16%
  21815 16194   2.25673e+08    69   2.28318e+08   2.25673e+08   355789    1.16%
  21816 16195   2.26332e+08    54   2.28318e+08   2.25673e+08   355880    1.16%
  21817 16196   2.26338e+08    54   2.28318e+08   2.25673e+08   355883    1.16%
  21818 16197   2.26351e+08    58   2.28318e+08   2.25673e+08   355900    1.16%
  21819 16196        cutoff         2.28318e+08   2.25673e+08   355947    1.16%
  21820 16197   2.26351e+08    58   2.28318e+08   2.25673e+08   355948    1.16%
  21821 16198   2.26357e+08    59   2.28318e+08   2.25673e+08   355957    1.16%
Elapsed time = 15.17 sec. (20368.84 ticks, tree = 10.75 MB, solutions = 23)
* 23001+16853                       2.28201e+08   2.25673e+08             1.11%
* 23001+16301                       2.27931e+08   2.25673e+08             0.99%
  24802 17841   2.26279e+08    56   2.27931e+08   2.25673e+08   421828    0.99%
  24803 17842   2.26282e+08    60   2.27931e+08   2.25673e+08   421836    0.99%
  24804 17843   2.26310e+08    57   2.27931e+08   2.25673e+08   421845    0.99%
  24805 17844   2.26310e+08    57   2.27931e+08   2.25673e+08   421848    0.99%
  24806 17845   2.26319e+08    59   2.27931e+08   2.25673e+08   421854    0.99%
  24807 17846   2.26517e+08    47   2.27931e+08   2.25673e+08   421879    0.99%
  24808 17847   2.26561e+08    46   2.27931e+08   2.25673e+08   421922    0.99%
  24809 17848   2.26619e+08    49   2.27931e+08   2.25673e+08   421942    0.99%
  24810 17849   2.26640e+08    42   2.27931e+08   2.25673e+08   421952    0.99%
  24811 17850   2.26644e+08    47   2.27931e+08   2.25673e+08   421970    0.99%
Elapsed time = 18.44 sec. (24192.70 ticks, tree = 12.27 MB, solutions = 25)
  27989 20442   2.25986e+08    38   2.27931e+08   2.25673e+08   489016    0.99%
  27990 20443   2.25986e+08    38   2.27931e+08   2.25673e+08   489018    0.99%
  27991 20444   2.25986e+08    37   2.27931e+08   2.25673e+08   489019    0.99%
  27992 20445   2.25986e+08    36   2.27931e+08   2.25673e+08   489027    0.99%
  27993 20446   2.25986e+08    35   2.27931e+08   2.25673e+08   489041    0.99%
  27994 20447   2.25986e+08    35   2.27931e+08   2.25673e+08   489044    0.99%
  27995 20448   2.25986e+08    35   2.27931e+08   2.25673e+08   489045    0.99%
  27996 20449   2.25986e+08    35   2.27931e+08   2.25673e+08   489047    0.99%
  27997 20450   2.26326e+08    37   2.27931e+08   2.25673e+08   489061    0.99%
  27998 20451   2.26436e+08    31   2.27931e+08   2.25673e+08   489066    0.99%
Elapsed time = 22.07 sec. (28011.99 ticks, tree = 13.96 MB, solutions = 25)
  31066 22534   2.27363e+08    27   2.27931e+08   2.25673e+08   555322    0.99%
  31067 22533        cutoff         2.27931e+08   2.25673e+08   555324    0.99%
  31068 22532        cutoff         2.27931e+08   2.25673e+08   555326    0.99%
  31069 22533   2.25673e+08    24   2.27931e+08   2.25673e+08   555363    0.99%
  31070 22533   2.27560e+08    31   2.27931e+08   2.25673e+08   555396    0.99%
  31071 22532        cutoff         2.27931e+08   2.25673e+08   555398    0.99%
  31072 22531    infeasible         2.27931e+08   2.25673e+08   555398    0.99%
  31073 22530    infeasible         2.27931e+08   2.25673e+08   555398    0.99%
  31074 22529        cutoff         2.27931e+08   2.25673e+08   555421    0.99%
  31075 22528        cutoff         2.27931e+08   2.25673e+08   555483    0.99%
Elapsed time = 25.70 sec. (31838.49 ticks, tree = 15.34 MB, solutions = 25)
  36346 26151   2.25673e+08    27   2.27931e+08   2.25673e+08   624962    0.99%
  36347 26152   2.25673e+08    28   2.27931e+08   2.25673e+08   624994    0.99%
  36348 26153   2.26073e+08    33   2.27931e+08   2.25673e+08   625072    0.99%
  36349 26152        cutoff         2.27931e+08   2.25673e+08   625075    0.99%
  36350 26151        cutoff         2.27931e+08   2.25673e+08   625082    0.99%
  36351 26152   2.26282e+08    30   2.27931e+08   2.25673e+08   625156    0.99%
  36352 26151        cutoff         2.27931e+08   2.25673e+08   625158    0.99%
  36353 26150        cutoff         2.27931e+08   2.25673e+08   625171    0.99%
  36354 26149    infeasible         2.27931e+08   2.25673e+08   625171    0.99%
  36355 26148        cutoff         2.27931e+08   2.25673e+08   625198    0.99%
Elapsed time = 29.24 sec. (35665.74 ticks, tree = 17.73 MB, solutions = 25)
  41185 28808   2.26831e+08    28   2.27931e+08   2.25673e+08   697485    0.99%
  41186 28807        cutoff         2.27931e+08   2.25673e+08   697493    0.99%
  41187 28806        cutoff         2.27931e+08   2.25673e+08   697517    0.99%
  41188 28807   2.25673e+08    29   2.27931e+08   2.25673e+08   697590    0.99%
  41189 28808   2.25673e+08    27   2.27931e+08   2.25673e+08   697591    0.99%
  41190 28809   2.25774e+08    41   2.27931e+08   2.25673e+08   697788    0.99%
  41191 28810   2.25774e+08    42   2.27931e+08   2.25673e+08   697801    0.99%
  41192 28811   2.25774e+08    40   2.27931e+08   2.25673e+08   697802    0.99%
  41193 28812   2.25774e+08    39   2.27931e+08   2.25673e+08   697805    0.99%
  41194 28813   2.25774e+08    39   2.27931e+08   2.25673e+08   697812    0.99%
Elapsed time = 32.70 sec. (39500.58 ticks, tree = 19.49 MB, solutions = 25)
  45272 30692    infeasible         2.27931e+08   2.25673e+08   775956    0.99%
  45273 30691    infeasible         2.27931e+08   2.25673e+08   775956    0.99%
  45274 30690        cutoff         2.27931e+08   2.25673e+08   776226    0.99%
  45275 30691   2.25673e+08    26   2.27931e+08   2.25673e+08   776239    0.99%
  45276 30691   2.27729e+08    28   2.27931e+08   2.25673e+08   776364    0.99%
  45277 30691   2.27729e+08    28   2.27931e+08   2.25673e+08   776371    0.99%
  45278 30691   2.27729e+08    29   2.27931e+08   2.25673e+08   776372    0.99%
  45279 30690   2.27729e+08    29   2.27931e+08   2.25673e+08   776373    0.99%
  45280 30689    infeasible         2.27931e+08   2.25673e+08   776528    0.99%
  45281 30690   2.25673e+08    24   2.27931e+08   2.25673e+08   776566    0.99%
Elapsed time = 36.32 sec. (43348.67 ticks, tree = 20.73 MB, solutions = 25)
  49261 32052   2.25673e+08    30   2.27931e+08   2.25673e+08   858006    0.99%
  49262 32053   2.25673e+08    30   2.27931e+08   2.25673e+08   858008    0.99%
  49263 32054   2.25673e+08    30   2.27931e+08   2.25673e+08   858010    0.99%
  49264 32055   2.25673e+08    30   2.27931e+08   2.25673e+08   858012    0.99%
  49265 32056   2.25673e+08    30   2.27931e+08   2.25673e+08   858013    0.99%
  49266 32055        cutoff         2.27931e+08   2.25673e+08   858016    0.99%
  49267 32055   2.26056e+08    34   2.27931e+08   2.25673e+08   858067    0.99%
  49268 32056   2.26112e+08    32   2.27931e+08   2.25673e+08   858069    0.99%
  49269 32056   2.26676e+08    31   2.27931e+08   2.25673e+08   858070    0.99%
  49270 32055        cutoff         2.27931e+08   2.25673e+08   858072    0.99%
Elapsed time = 39.92 sec. (47170.12 ticks, tree = 21.65 MB, solutions = 25)
  53915 34354   2.27439e+08    30   2.27931e+08   2.25673e+08   933829    0.99%
  53916 34353        cutoff         2.27931e+08   2.25673e+08   933839    0.99%
  53917 34352        cutoff         2.27931e+08   2.25673e+08   933848    0.99%
  53918 34353   2.25673e+08    24   2.27931e+08   2.25673e+08   933874    0.99%
  53919 34354   2.26164e+08    29   2.27931e+08   2.25673e+08   934014    0.99%
  53920 34353        cutoff         2.27931e+08   2.25673e+08   934038    0.99%
  53921 34352    infeasible         2.27931e+08   2.25673e+08   934038    0.99%
  53922 34353   2.25673e+08    28   2.27931e+08   2.25673e+08   934064    0.99%
  53923 34353   2.25820e+08    30   2.27931e+08   2.25673e+08   934194    0.99%
  53924 34352        cutoff         2.27931e+08   2.25673e+08   934201    0.99%
Elapsed time = 43.40 sec. (51002.45 ticks, tree = 24.11 MB, solutions = 25)
  59002 36867        cutoff         2.27931e+08   2.25673e+08  1009759    0.99%
  59003 36866        cutoff         2.27931e+08   2.25673e+08  1009763    0.99%
  59004 36865        cutoff         2.27931e+08   2.25673e+08  1009779    0.99%
  59005 36864    infeasible         2.27931e+08   2.25673e+08  1009779    0.99%
  59006 36863        cutoff         2.27931e+08   2.25673e+08  1009858    0.99%
  59007 36862    infeasible         2.27931e+08   2.25673e+08  1009858    0.99%
  59008 36863   2.25673e+08    28   2.27931e+08   2.25673e+08  1009933    0.99%
  59009 36863   2.26007e+08    30   2.27931e+08   2.25673e+08  1010003    0.99%
  59010 36862        cutoff         2.27931e+08   2.25673e+08  1010006    0.99%
  59011 36863   2.25673e+08    27   2.27931e+08   2.25673e+08  1010032    0.99%
Elapsed time = 46.96 sec. (54834.64 ticks, tree = 25.76 MB, solutions = 25)
  62903 38322   2.26743e+08    35   2.27931e+08   2.25673e+08  1088666    0.99%
  62904 38323   2.26872e+08    46   2.27931e+08   2.25673e+08  1088684    0.99%
  62905 38324   2.26872e+08    44   2.27931e+08   2.25673e+08  1088686    0.99%
  62906 38325   2.26872e+08    42   2.27931e+08   2.25673e+08  1088689    0.99%
  62907 38324        cutoff         2.27931e+08   2.25673e+08  1088728    0.99%
  62908 38325   2.26912e+08    36   2.27931e+08   2.25673e+08  1088748    0.99%
  62909 38326   2.26933e+08    37   2.27931e+08   2.25673e+08  1088753    0.99%
  62910 38327   2.26941e+08    34   2.27931e+08   2.25673e+08  1088759    0.99%
  62911 38328   2.26944e+08    34   2.27931e+08   2.25673e+08  1088762    0.99%
  62912 38327        cutoff         2.27931e+08   2.25673e+08  1088786    0.99%
Elapsed time = 50.48 sec. (58659.67 ticks, tree = 26.75 MB, solutions = 25)
  66746 40881   2.25673e+08    23   2.27931e+08   2.25673e+08  1171378    0.99%
  66747 40882   2.25673e+08    25   2.27931e+08   2.25673e+08  1171430    0.99%
  66748 40883   2.25673e+08    22   2.27931e+08   2.25673e+08  1171460    0.99%
  66749 40884   2.25673e+08    23   2.27931e+08   2.25673e+08  1171498    0.99%
  66750 40885   2.25673e+08    22   2.27931e+08   2.25673e+08  1171500    0.99%
  66751 40886   2.25673e+08    22   2.27931e+08   2.25673e+08  1171530    0.99%
  66752 40887   2.25673e+08    22   2.27931e+08   2.25673e+08  1171554    0.99%
  66753 40888   2.25673e+08    25   2.27931e+08   2.25673e+08  1171618    0.99%
  66754 40889   2.25673e+08    27   2.27931e+08   2.25673e+08  1171637    0.99%
  66755 40890   2.25673e+08    27   2.27931e+08   2.25673e+08  1171640    0.99%
Elapsed time = 54.08 sec. (62492.03 ticks, tree = 28.44 MB, solutions = 25)
  70820 43326        cutoff         2.27931e+08   2.25673e+08  1257999    0.99%
  70821 43325        cutoff         2.27931e+08   2.25673e+08  1258041    0.99%
  70822 43326   2.25811e+08    31   2.27931e+08   2.25673e+08  1258182    0.99%
  70823 43327   2.25858e+08    30   2.27931e+08   2.25673e+08  1258187    0.99%
  70824 43328   2.25858e+08    32   2.27931e+08   2.25673e+08  1258218    0.99%
  70825 43329   2.25858e+08    29   2.27931e+08   2.25673e+08  1258234    0.99%
  70826 43330   2.25858e+08    30   2.27931e+08   2.25673e+08  1258262    0.99%
  70827 43331   2.25858e+08    30   2.27931e+08   2.25673e+08  1258274    0.99%
  70828 43332   2.25858e+08    31   2.27931e+08   2.25673e+08  1258310    0.99%
  70829 43333   2.25858e+08    29   2.27931e+08   2.25673e+08  1258311    0.99%
Elapsed time = 57.72 sec. (66316.44 ticks, tree = 30.11 MB, solutions = 25)
  74915 45732   2.26718e+08    32   2.27931e+08   2.25673e+08  1350404    0.99%
  74916 45733   2.26718e+08    29   2.27931e+08   2.25673e+08  1350413    0.99%
  74917 45734   2.26718e+08    29   2.27931e+08   2.25673e+08  1350426    0.99%
  74918 45735   2.26718e+08    30   2.27931e+08   2.25673e+08  1350439    0.99%
  74919 45736   2.26718e+08    28   2.27931e+08   2.25673e+08  1350442    0.99%
  74920 45737   2.27497e+08    22   2.27931e+08   2.25673e+08  1350455    0.99%
  74921 45737   2.27497e+08    23   2.27931e+08   2.25673e+08  1350458    0.99%
  74922 45736        cutoff         2.27931e+08   2.25673e+08  1350466    0.99%
  74923 45735    infeasible         2.27931e+08   2.25673e+08  1350466    0.99%
  74924 45736   2.25673e+08    27   2.27931e+08   2.25673e+08  1350543    0.99%
Elapsed time = 61.42 sec. (70140.62 ticks, tree = 31.74 MB, solutions = 25)
  78613 48000        cutoff         2.27931e+08   2.25673e+08  1439236    0.99%
  78614 48001   2.25673e+08    32   2.27931e+08   2.25673e+08  1439266    0.99%
  78615 48002   2.25673e+08    41   2.27931e+08   2.25673e+08  1439335    0.99%
  78616 48003   2.25673e+08    32   2.27931e+08   2.25673e+08  1439359    0.99%
  78617 48004   2.25673e+08    31   2.27931e+08   2.25673e+08  1439361    0.99%
  78618 48005   2.25673e+08    31   2.27931e+08   2.25673e+08  1439369    0.99%
  78619 48006   2.25673e+08    33   2.27931e+08   2.25673e+08  1439378    0.99%
  78620 48007   2.25673e+08    32   2.27931e+08   2.25673e+08  1439379    0.99%
  78621 48008   2.25673e+08    35   2.27931e+08   2.25673e+08  1439385    0.99%
  78622 48007        cutoff         2.27931e+08   2.25673e+08  1439394    0.99%
Elapsed time = 65.07 sec. (73963.28 ticks, tree = 33.27 MB, solutions = 25)
  82389 49929   2.25673e+08    33   2.27931e+08   2.25673e+08  1527834    0.99%
  82390 49930   2.25673e+08    41   2.27931e+08   2.25673e+08  1527837    0.99%
  82391 49931   2.25673e+08    39   2.27931e+08   2.25673e+08  1527838    0.99%
  82392 49932   2.25673e+08    36   2.27931e+08   2.25673e+08  1527839    0.99%
  82393 49933   2.25673e+08    36   2.27931e+08   2.25673e+08  1527844    0.99%
  82394 49934   2.25673e+08    37   2.27931e+08   2.25673e+08  1527846    0.99%
  82395 49935   2.25673e+08    37   2.27931e+08   2.25673e+08  1527848    0.99%
  82396 49936   2.25673e+08    31   2.27931e+08   2.25673e+08  1527855    0.99%
  82397 49937   2.25673e+08    29   2.27931e+08   2.25673e+08  1527863    0.99%
  82398 49938   2.25673e+08    29   2.27931e+08   2.25673e+08  1527864    0.99%
Elapsed time = 68.84 sec. (77783.98 ticks, tree = 38.28 MB, solutions = 25)
  85980 51678   2.25727e+08    34   2.27931e+08   2.25673e+08  1601081    0.99%
  85981 51679   2.25727e+08    34   2.27931e+08   2.25673e+08  1601082    0.99%
  85982 51680   2.25727e+08    33   2.27931e+08   2.25673e+08  1601083    0.99%
  85983 51681   2.25727e+08    29   2.27931e+08   2.25673e+08  1601094    0.99%
  85984 51682   2.25727e+08    29   2.27931e+08   2.25673e+08  1601098    0.99%
  85985 51683   2.25727e+08    29   2.27931e+08   2.25673e+08  1601099    0.99%
  85986 51684   2.26023e+08    29   2.27931e+08   2.25673e+08  1601103    0.99%
  85987 51685   2.26047e+08    28   2.27931e+08   2.25673e+08  1601106    0.99%
  85988 51686   2.26131e+08    37   2.27931e+08   2.25673e+08  1601145    0.99%
  85989 51687   2.26131e+08    37   2.27931e+08   2.25673e+08  1601150    0.99%
Elapsed time = 72.51 sec. (81609.04 ticks, tree = 50.82 MB, solutions = 25)
  90010 53802   2.27406e+08    18   2.27931e+08   2.25673e+08  1675900    0.99%
  90011 53801        cutoff         2.27931e+08   2.25673e+08  1675909    0.99%
  90012 53800        cutoff         2.27931e+08   2.25673e+08  1675923    0.99%
  90013 53801   2.25673e+08    18   2.27931e+08   2.25673e+08  1675955    0.99%
  90014 53802   2.25673e+08    18   2.27931e+08   2.25673e+08  1675973    0.99%
  90015 53803   2.25673e+08    18   2.27931e+08   2.25673e+08  1675995    0.99%
  90016 53804   2.25673e+08    19   2.27931e+08   2.25673e+08  1676009    0.99%
  90017 53805   2.25673e+08    22   2.27931e+08   2.25673e+08  1676034    0.99%
  90018 53806   2.25673e+08    23   2.27931e+08   2.25673e+08  1676036    0.99%
  90019 53807   2.25673e+08    23   2.27931e+08   2.25673e+08  1676042    0.99%
Elapsed time = 76.16 sec. (85436.71 ticks, tree = 67.09 MB, solutions = 25)
  93933 56124   2.25673e+08    24   2.27931e+08   2.25673e+08  1747179    0.99%
  93934 56125   2.25673e+08    24   2.27931e+08   2.25673e+08  1747193    0.99%
  93935 56126   2.25673e+08    24   2.27931e+08   2.25673e+08  1747203    0.99%
  93936 56125        cutoff         2.27931e+08   2.25673e+08  1747239    0.99%
  93937 56126   2.25673e+08    25   2.27931e+08   2.25673e+08  1747264    0.99%
  93938 56127   2.25673e+08    27   2.27931e+08   2.25673e+08  1747301    0.99%
  93939 56128   2.25673e+08    29   2.27931e+08   2.25673e+08  1747311    0.99%
  93940 56129   2.25673e+08    27   2.27931e+08   2.25673e+08  1747331    0.99%
  93941 56128        cutoff         2.27931e+08   2.25673e+08  1747361    0.99%
  93942 56129   2.25673e+08    30   2.27931e+08   2.25673e+08  1747366    0.99%
Elapsed time = 79.83 sec. (89260.67 ticks, tree = 84.18 MB, solutions = 25)
  98283 58537   2.26971e+08    29   2.27931e+08   2.25673e+08  1824842    0.99%
  98284 58537   2.27488e+08    31   2.27931e+08   2.25673e+08  1824843    0.99%
  98285 58537   2.27507e+08    30   2.27931e+08   2.25673e+08  1824844    0.99%
  98286 58536   2.27749e+08    29   2.27931e+08   2.25673e+08  1824848    0.99%
  98287 58537   2.25673e+08    29   2.27931e+08   2.25673e+08  1824887    0.99%
  98288 58538   2.26043e+08    56   2.27931e+08   2.25673e+08  1825187    0.99%
  98289 58539   2.26043e+08    54   2.27931e+08   2.25673e+08  1825196    0.99%
  98290 58540   2.26049e+08    45   2.27931e+08   2.25673e+08  1825208    0.99%
  98291 58541   2.26049e+08    44   2.27931e+08   2.25673e+08  1825211    0.99%
  98292 58542   2.26051e+08    44   2.27931e+08   2.25673e+08  1825212    0.99%
Elapsed time = 83.62 sec. (93096.81 ticks, tree = 102.00 MB, solutions = 25)
 102523 61343   2.27011e+08    25   2.27931e+08   2.25673e+08  1892864    0.99%
 102524 61344   2.27011e+08    25   2.27931e+08   2.25673e+08  1892865    0.99%
 102525 61345   2.27011e+08    25   2.27931e+08   2.25673e+08  1892867    0.99%
 102526 61346   2.27017e+08    35   2.27931e+08   2.25673e+08  1892872    0.99%
 102527 61347   2.27017e+08    30   2.27931e+08   2.25673e+08  1892875    0.99%
 102528 61348   2.27020e+08    25   2.27931e+08   2.25673e+08  1892876    0.99%
 102529 61349   2.27021e+08    25   2.27931e+08   2.25673e+08  1892877    0.99%
 102530 61350   2.27021e+08    25   2.27931e+08   2.25673e+08  1892878    0.99%
 102531 61351   2.27021e+08    25   2.27931e+08   2.25673e+08  1892879    0.99%
 102532 61352   2.27021e+08    25   2.27931e+08   2.25673e+08  1892880    0.99%
Elapsed time = 87.36 sec. (96914.07 ticks, tree = 122.54 MB, solutions = 25)
 106493 63759   2.26523e+08    31   2.27931e+08   2.25673e+08  1957855    0.99%
 106494 63760   2.26611e+08    29   2.27931e+08   2.25673e+08  1957858    0.99%
 106495 63759        cutoff         2.27931e+08   2.25673e+08  1957865    0.99%
 106496 63758        cutoff         2.27931e+08   2.25673e+08  1957871    0.99%
 106497 63757        cutoff         2.27931e+08   2.25673e+08  1957905    0.99%
 106498 63756        cutoff         2.27931e+08   2.25673e+08  1957919    0.99%
 106499 63757   2.27406e+08    16   2.27931e+08   2.25673e+08  1957956    0.99%
 106500 63756    infeasible         2.27931e+08   2.25673e+08  1957961    0.99%
 106501 63755        cutoff         2.27931e+08   2.25673e+08  1957978    0.99%
 106502 63754    infeasible         2.27931e+08   2.25673e+08  1957978    0.99%
Elapsed time = 90.97 sec. (100739.59 ticks, tree = 140.11 MB, solutions = 25)
 108501 64743   2.25881e+08    31   2.27931e+08   2.25673e+08  1989905    0.99%
 108502 64744   2.25949e+08    29   2.27931e+08   2.25673e+08  1989913    0.99%
 108503 64744   2.26351e+08    27   2.27931e+08   2.25673e+08  1989920    0.99%
 108504 64745   2.26736e+08    25   2.27931e+08   2.25673e+08  1989921    0.99%
 108505 64746   2.27910e+08    22   2.27931e+08   2.25673e+08  1989927    0.99%
 108506 64745        cutoff         2.27931e+08   2.25673e+08  1989929    0.99%
 108507 64744    infeasible         2.27931e+08   2.25673e+08  1989929    0.99%
 108508 64745   2.26045e+08    32   2.27931e+08   2.25673e+08  1990012    0.99%
 108509 64744        cutoff         2.27931e+08   2.25673e+08  1990036    0.99%
 108510 64744   2.26754e+08    24   2.27931e+08   2.25673e+08  1990040    0.99%
Elapsed time = 94.32 sec. (104690.72 ticks, tree = 147.36 MB, solutions = 25)
 112199 66430   2.26305e+08    37   2.27931e+08   2.25673e+08  2055079    0.99%
 112200 66431   2.26328e+08    37   2.27931e+08   2.25673e+08  2055084    0.99%
 112201 66430        cutoff         2.27931e+08   2.25673e+08  2055088    0.99%
 112202 66429        cutoff         2.27931e+08   2.25673e+08  2055090    0.99%
 112203 66428        cutoff         2.27931e+08   2.25673e+08  2055152    0.99%
 112204 66429   2.25673e+08    21   2.27931e+08   2.25673e+08  2055176    0.99%
 112205 66430   2.25673e+08    22   2.27931e+08   2.25673e+08  2055188    0.99%
 112206 66431   2.25673e+08    23   2.27931e+08   2.25673e+08  2055195    0.99%
 112207 66432   2.25673e+08    24   2.27931e+08   2.25673e+08  2055196    0.99%
 112208 66433   2.25673e+08    25   2.27931e+08   2.25673e+08  2055201    0.99%
Elapsed time = 97.87 sec. (108511.71 ticks, tree = 161.64 MB, solutions = 25)

Cover cuts applied:  454
Mixed integer rounding cuts applied:  14
Zero-half cuts applied:  3
Gomory fractional cuts applied:  4

Root node processing (before b&c):
  Real time             =    0.05 sec. (55.53 ticks)
Sequential b&c:
  Real time             =   99.95 sec. (110736.38 ticks)
                          ------------
Total (root+branch&cut) =  100.00 sec. (110791.90 ticks)

Solution pool: 25 solutions saved.

MIP - Time limit exceeded, integer feasible:  Objective =  2.2793103400e+08
Current MIP best bound =  2.2567326400e+08 (gap = 2.25777e+06, 0.99%)
Solution time =  100.00 sec.  Iterations = 2098242  Nodes = 114796 (67820)
Deterministic time = 110791.90 ticks  (1107.92 ticks/sec)


Incumbent solution written to file '/tmp/tmpaNtkk6.cplex.sol'.
